
Gurobi 7.0.2 (linux64, Matlab) logging started Sun Sep  2 08:55:01 2018


Gurobi 7.0.2 (linux64) logging started Sun Sep  2 08:55:01 2018

Optimize a model with 25922 rows, 45663 columns and 158006 nonzeros
Coefficient statistics:
  Matrix range     [2e-04, 6e+01]
  Objective range  [1e-04, 1e+01]
  Bounds range     [8e-01, 1e+03]
  RHS range        [3e+00, 1e+03]
Iteration    Objective       Primal Inf.    Dual Inf.      Time
       0    3.3937237e+03   0.000000e+00   0.000000e+00      0s

Solved in 0 iterations and 0.02 seconds
Optimal objective  3.393723714e+03
